; benchmark generated from python API
(set-info :status unknown)
(declare-fun cell_1_3 () Int)
(declare-fun cell_1_4 () Int)
(declare-fun cell_2_7 () Int)
(declare-fun cell_2_8 () Int)
(declare-fun cell_3_1 () Int)
(declare-fun cell_3_6 () Int)
(declare-fun cell_4_2 () Int)
(declare-fun cell_4_3 () Int)
(declare-fun cell_5_6 () Int)
(declare-fun cell_5_9 () Int)
(declare-fun cell_6_4 () Int)
(declare-fun cell_6_8 () Int)
(declare-fun cell_7_1 () Int)
(declare-fun cell_7_5 () Int)
(declare-fun cell_8_2 () Int)
(declare-fun cell_8_7 () Int)
(declare-fun cell_9_9 () Int)
(declare-fun cell_1_1 () Int)
(declare-fun cell_2_1 () Int)
(declare-fun cell_4_1 () Int)
(declare-fun cell_5_1 () Int)
(declare-fun cell_6_1 () Int)
(declare-fun cell_8_1 () Int)
(declare-fun cell_9_1 () Int)
(declare-fun cell_1_2 () Int)
(declare-fun cell_2_2 () Int)
(declare-fun cell_3_2 () Int)
(declare-fun cell_5_2 () Int)
(declare-fun cell_6_2 () Int)
(declare-fun cell_7_2 () Int)
(declare-fun cell_9_2 () Int)
(declare-fun cell_2_3 () Int)
(declare-fun cell_3_3 () Int)
(declare-fun cell_5_3 () Int)
(declare-fun cell_6_3 () Int)
(declare-fun cell_7_3 () Int)
(declare-fun cell_8_3 () Int)
(declare-fun cell_9_3 () Int)
(declare-fun cell_2_4 () Int)
(declare-fun cell_3_4 () Int)
(declare-fun cell_4_4 () Int)
(declare-fun cell_5_4 () Int)
(declare-fun cell_7_4 () Int)
(declare-fun cell_8_4 () Int)
(declare-fun cell_9_4 () Int)
(declare-fun cell_1_5 () Int)
(declare-fun cell_2_5 () Int)
(declare-fun cell_3_5 () Int)
(declare-fun cell_4_5 () Int)
(declare-fun cell_5_5 () Int)
(declare-fun cell_6_5 () Int)
(declare-fun cell_8_5 () Int)
(declare-fun cell_9_5 () Int)
(declare-fun cell_1_6 () Int)
(declare-fun cell_2_6 () Int)
(declare-fun cell_4_6 () Int)
(declare-fun cell_6_6 () Int)
(declare-fun cell_7_6 () Int)
(declare-fun cell_8_6 () Int)
(declare-fun cell_9_6 () Int)
(declare-fun cell_1_7 () Int)
(declare-fun cell_3_7 () Int)
(declare-fun cell_4_7 () Int)
(declare-fun cell_5_7 () Int)
(declare-fun cell_6_7 () Int)
(declare-fun cell_7_7 () Int)
(declare-fun cell_9_7 () Int)
(declare-fun cell_1_8 () Int)
(declare-fun cell_3_8 () Int)
(declare-fun cell_4_8 () Int)
(declare-fun cell_5_8 () Int)
(declare-fun cell_7_8 () Int)
(declare-fun cell_8_8 () Int)
(declare-fun cell_9_8 () Int)
(declare-fun cell_1_9 () Int)
(declare-fun cell_2_9 () Int)
(declare-fun cell_3_9 () Int)
(declare-fun cell_4_9 () Int)
(declare-fun cell_6_9 () Int)
(declare-fun cell_7_9 () Int)
(declare-fun cell_8_9 () Int)
(assert
 (= cell_1_3 2))
(assert
 (= cell_1_4 1))
(assert
 (= cell_2_7 1))
(assert
 (= cell_2_8 2))
(assert
 (= cell_3_1 1))
(assert
 (= cell_3_6 2))
(assert
 (= cell_4_2 2))
(assert
 (= cell_4_3 1))
(assert
 (= cell_5_6 1))
(assert
 (= cell_5_9 2))
(assert
 (= cell_6_4 2))
(assert
 (= cell_6_8 1))
(assert
 (= cell_7_1 2))
(assert
 (= cell_7_5 1))
(assert
 (= cell_8_2 1))
(assert
 (= cell_8_7 2))
(assert
 (= cell_9_9 1))
(assert
 (let (($x246 (= cell_1_1 9)))
 (let (($x1609 (= cell_1_1 8)))
 (let (($x3563 (= cell_1_1 7)))
 (let (($x3713 (= cell_1_1 6)))
 (let (($x1286 (= cell_1_1 5)))
 (let (($x1749 (= cell_1_1 4)))
 (let (($x310 (= cell_1_1 3)))
 (let (($x1533 (= cell_1_1 2)))
 (let (($x1431 (= cell_1_1 1)))
 (or $x1431 $x1533 $x310 $x1749 $x1286 $x3713 $x3563 $x1609 $x246)))))))))))
(assert
 (let (($x3859 (= cell_2_1 9)))
 (let (($x726 (= cell_2_1 8)))
 (let (($x6308 (= cell_2_1 7)))
 (let (($x2166 (= cell_2_1 6)))
 (let (($x1143 (= cell_2_1 5)))
 (let (($x3218 (= cell_2_1 4)))
 (let (($x169 (= cell_2_1 3)))
 (let (($x780 (= cell_2_1 2)))
 (let (($x2322 (= cell_2_1 1)))
 (or $x2322 $x780 $x169 $x3218 $x1143 $x2166 $x6308 $x726 $x3859)))))))))))
(assert
 (let (($x1577 (= cell_3_1 1)))
 (or $x1577 (= cell_3_1 2) (= cell_3_1 3) (= cell_3_1 4) (= cell_3_1 5) (= cell_3_1 6) (= cell_3_1 7) (= cell_3_1 8) (= cell_3_1 9))))
(assert
 (let (($x3589 (= cell_4_1 9)))
 (let (($x51 (= cell_4_1 8)))
 (let (($x2850 (= cell_4_1 7)))
 (let (($x1888 (= cell_4_1 6)))
 (let (($x3263 (= cell_4_1 5)))
 (let (($x878 (= cell_4_1 4)))
 (let (($x2338 (= cell_4_1 3)))
 (let (($x2771 (= cell_4_1 2)))
 (let (($x969 (= cell_4_1 1)))
 (or $x969 $x2771 $x2338 $x878 $x3263 $x1888 $x2850 $x51 $x3589)))))))))))
(assert
 (let (($x3753 (= cell_5_1 9)))
 (let (($x5337 (= cell_5_1 8)))
 (let (($x552 (= cell_5_1 7)))
 (let (($x2498 (= cell_5_1 6)))
 (let (($x1937 (= cell_5_1 5)))
 (let (($x867 (= cell_5_1 4)))
 (let (($x3424 (= cell_5_1 3)))
 (let (($x467 (= cell_5_1 2)))
 (let (($x3750 (= cell_5_1 1)))
 (or $x3750 $x467 $x3424 $x867 $x1937 $x2498 $x552 $x5337 $x3753)))))))))))
(assert
 (let (($x256 (= cell_6_1 9)))
 (let (($x3296 (= cell_6_1 8)))
 (let (($x1395 (= cell_6_1 7)))
 (let (($x477 (= cell_6_1 6)))
 (let (($x2542 (= cell_6_1 5)))
 (let (($x1367 (= cell_6_1 4)))
 (let (($x2057 (= cell_6_1 3)))
 (let (($x2540 (= cell_6_1 2)))
 (let (($x3559 (= cell_6_1 1)))
 (or $x3559 $x2540 $x2057 $x1367 $x2542 $x477 $x1395 $x3296 $x256)))))))))))
(assert
 (let (($x2184 (= cell_7_1 2)))
 (or (= cell_7_1 1) $x2184 (= cell_7_1 3) (= cell_7_1 4) (= cell_7_1 5) (= cell_7_1 6) (= cell_7_1 7) (= cell_7_1 8) (= cell_7_1 9))))
(assert
 (let (($x5411 (= cell_8_1 9)))
 (let (($x1541 (= cell_8_1 8)))
 (let (($x2593 (= cell_8_1 7)))
 (let (($x105 (= cell_8_1 6)))
 (let (($x1059 (= cell_8_1 5)))
 (let (($x1036 (= cell_8_1 4)))
 (let (($x3749 (= cell_8_1 3)))
 (let (($x487 (= cell_8_1 2)))
 (let (($x484 (= cell_8_1 1)))
 (or $x484 $x487 $x3749 $x1036 $x1059 $x105 $x2593 $x1541 $x5411)))))))))))
(assert
 (let (($x1339 (= cell_9_1 9)))
 (let (($x3800 (= cell_9_1 8)))
 (let (($x2263 (= cell_9_1 7)))
 (let (($x4952 (= cell_9_1 6)))
 (let (($x2484 (= cell_9_1 5)))
 (let (($x3027 (= cell_9_1 4)))
 (let (($x2451 (= cell_9_1 3)))
 (let (($x1490 (= cell_9_1 2)))
 (let (($x3816 (= cell_9_1 1)))
 (or $x3816 $x1490 $x2451 $x3027 $x2484 $x4952 $x2263 $x3800 $x1339)))))))))))
(assert
 (let (($x3321 (= cell_1_2 9)))
 (let (($x184 (= cell_1_2 8)))
 (let (($x532 (= cell_1_2 7)))
 (let (($x1366 (= cell_1_2 6)))
 (let (($x3357 (= cell_1_2 5)))
 (let (($x790 (= cell_1_2 4)))
 (let (($x2186 (= cell_1_2 3)))
 (let (($x2086 (= cell_1_2 2)))
 (let (($x2478 (= cell_1_2 1)))
 (or $x2478 $x2086 $x2186 $x790 $x3357 $x1366 $x532 $x184 $x3321)))))))))))
(assert
 (let (($x2089 (= cell_2_2 9)))
 (let (($x764 (= cell_2_2 8)))
 (let (($x1808 (= cell_2_2 7)))
 (let (($x1175 (= cell_2_2 6)))
 (let (($x2479 (= cell_2_2 5)))
 (let (($x2657 (= cell_2_2 4)))
 (let (($x3089 (= cell_2_2 3)))
 (let (($x276 (= cell_2_2 2)))
 (let (($x2158 (= cell_2_2 1)))
 (or $x2158 $x276 $x3089 $x2657 $x2479 $x1175 $x1808 $x764 $x2089)))))))))))
(assert
 (let (($x2454 (= cell_3_2 9)))
 (let (($x3696 (= cell_3_2 8)))
 (let (($x2402 (= cell_3_2 7)))
 (let (($x3528 (= cell_3_2 6)))
 (let (($x2405 (= cell_3_2 5)))
 (let (($x455 (= cell_3_2 4)))
 (let (($x1107 (= cell_3_2 3)))
 (let (($x120 (= cell_3_2 2)))
 (let (($x2003 (= cell_3_2 1)))
 (or $x2003 $x120 $x1107 $x455 $x2405 $x3528 $x2402 $x3696 $x2454)))))))))))
(assert
 (let (($x318 (= cell_4_2 2)))
 (or (= cell_4_2 1) $x318 (= cell_4_2 3) (= cell_4_2 4) (= cell_4_2 5) (= cell_4_2 6) (= cell_4_2 7) (= cell_4_2 8) (= cell_4_2 9))))
(assert
 (let (($x2231 (= cell_5_2 9)))
 (let (($x900 (= cell_5_2 8)))
 (let (($x985 (= cell_5_2 7)))
 (let (($x3418 (= cell_5_2 6)))
 (let (($x63 (= cell_5_2 5)))
 (let (($x2896 (= cell_5_2 4)))
 (let (($x1078 (= cell_5_2 3)))
 (let (($x1206 (= cell_5_2 2)))
 (let (($x906 (= cell_5_2 1)))
 (or $x906 $x1206 $x1078 $x2896 $x63 $x3418 $x985 $x900 $x2231)))))))))))
(assert
 (let (($x2261 (= cell_6_2 9)))
 (let (($x3130 (= cell_6_2 8)))
 (let (($x14 (= cell_6_2 7)))
 (let (($x3630 (= cell_6_2 6)))
 (let (($x3513 (= cell_6_2 5)))
 (let (($x2894 (= cell_6_2 4)))
 (let (($x1027 (= cell_6_2 3)))
 (let (($x1625 (= cell_6_2 2)))
 (let (($x2163 (= cell_6_2 1)))
 (or $x2163 $x1625 $x1027 $x2894 $x3513 $x3630 $x14 $x3130 $x2261)))))))))))
(assert
 (let (($x1786 (= cell_7_2 9)))
 (let (($x3102 (= cell_7_2 8)))
 (let (($x1513 (= cell_7_2 7)))
 (let (($x329 (= cell_7_2 6)))
 (let (($x2215 (= cell_7_2 5)))
 (let (($x3508 (= cell_7_2 4)))
 (let (($x549 (= cell_7_2 3)))
 (let (($x1724 (= cell_7_2 2)))
 (let (($x2886 (= cell_7_2 1)))
 (or $x2886 $x1724 $x549 $x3508 $x2215 $x329 $x1513 $x3102 $x1786)))))))))))
(assert
 (let (($x591 (= cell_8_2 1)))
 (or $x591 (= cell_8_2 2) (= cell_8_2 3) (= cell_8_2 4) (= cell_8_2 5) (= cell_8_2 6) (= cell_8_2 7) (= cell_8_2 8) (= cell_8_2 9))))
(assert
 (let (($x1136 (= cell_9_2 9)))
 (let (($x273 (= cell_9_2 8)))
 (let (($x2212 (= cell_9_2 7)))
 (let (($x650 (= cell_9_2 6)))
 (let (($x3757 (= cell_9_2 5)))
 (let (($x1410 (= cell_9_2 4)))
 (let (($x5306 (= cell_9_2 3)))
 (let (($x1303 (= cell_9_2 2)))
 (let (($x1769 (= cell_9_2 1)))
 (or $x1769 $x1303 $x5306 $x1410 $x3757 $x650 $x2212 $x273 $x1136)))))))))))
(assert
 (let (($x341 (= cell_1_3 2)))
 (or (= cell_1_3 1) $x341 (= cell_1_3 3) (= cell_1_3 4) (= cell_1_3 5) (= cell_1_3 6) (= cell_1_3 7) (= cell_1_3 8) (= cell_1_3 9))))
(assert
 (let (($x890 (= cell_2_3 9)))
 (let (($x3638 (= cell_2_3 8)))
 (let (($x1479 (= cell_2_3 7)))
 (let (($x870 (= cell_2_3 6)))
 (let (($x9532 (= cell_2_3 5)))
 (let (($x689 (= cell_2_3 4)))
 (let (($x2013 (= cell_2_3 3)))
 (let (($x3587 (= cell_2_3 2)))
 (let (($x1057 (= cell_2_3 1)))
 (or $x1057 $x3587 $x2013 $x689 $x9532 $x870 $x1479 $x3638 $x890)))))))))))
(assert
 (let (($x3833 (= cell_3_3 9)))
 (let (($x1871 (= cell_3_3 8)))
 (let (($x2445 (= cell_3_3 7)))
 (let (($x2596 (= cell_3_3 6)))
 (let (($x8 (= cell_3_3 5)))
 (let (($x2088 (= cell_3_3 4)))
 (let (($x7760 (= cell_3_3 3)))
 (let (($x593 (= cell_3_3 2)))
 (let (($x1947 (= cell_3_3 1)))
 (or $x1947 $x593 $x7760 $x2088 $x8 $x2596 $x2445 $x1871 $x3833)))))))))))
(assert
 (let (($x3020 (= cell_4_3 1)))
 (or $x3020 (= cell_4_3 2) (= cell_4_3 3) (= cell_4_3 4) (= cell_4_3 5) (= cell_4_3 6) (= cell_4_3 7) (= cell_4_3 8) (= cell_4_3 9))))
(assert
 (let (($x3242 (= cell_5_3 9)))
 (let (($x1312 (= cell_5_3 8)))
 (let (($x710 (= cell_5_3 7)))
 (let (($x2860 (= cell_5_3 6)))
 (let (($x1899 (= cell_5_3 5)))
 (let (($x322 (= cell_5_3 4)))
 (let (($x5037 (= cell_5_3 3)))
 (let (($x2904 (= cell_5_3 2)))
 (let (($x1696 (= cell_5_3 1)))
 (or $x1696 $x2904 $x5037 $x322 $x1899 $x2860 $x710 $x1312 $x3242)))))))))))
(assert
 (let (($x1972 (= cell_6_3 9)))
 (let (($x2974 (= cell_6_3 8)))
 (let (($x1665 (= cell_6_3 7)))
 (let (($x284 (= cell_6_3 6)))
 (let (($x122 (= cell_6_3 5)))
 (let (($x3134 (= cell_6_3 4)))
 (let (($x2697 (= cell_6_3 3)))
 (let (($x3322 (= cell_6_3 2)))
 (let (($x3361 (= cell_6_3 1)))
 (or $x3361 $x3322 $x2697 $x3134 $x122 $x284 $x1665 $x2974 $x1972)))))))))))
(assert
 (let (($x2572 (= cell_7_3 9)))
 (let (($x3057 (= cell_7_3 8)))
 (let (($x777 (= cell_7_3 7)))
 (let (($x418 (= cell_7_3 6)))
 (let (($x845 (= cell_7_3 5)))
 (let (($x2129 (= cell_7_3 4)))
 (let (($x278 (= cell_7_3 3)))
 (let (($x412 (= cell_7_3 2)))
 (let (($x435 (= cell_7_3 1)))
 (or $x435 $x412 $x278 $x2129 $x845 $x418 $x777 $x3057 $x2572)))))))))))
(assert
 (let (($x2438 (= cell_8_3 9)))
 (let (($x3641 (= cell_8_3 8)))
 (let (($x1074 (= cell_8_3 7)))
 (let (($x50 (= cell_8_3 6)))
 (let (($x922 (= cell_8_3 5)))
 (let (($x32 (= cell_8_3 4)))
 (let (($x727 (= cell_8_3 3)))
 (let (($x2566 (= cell_8_3 2)))
 (let (($x3740 (= cell_8_3 1)))
 (or $x3740 $x2566 $x727 $x32 $x922 $x50 $x1074 $x3641 $x2438)))))))))))
(assert
 (let (($x9547 (= cell_9_3 9)))
 (let (($x2413 (= cell_9_3 8)))
 (let (($x107 (= cell_9_3 7)))
 (let (($x695 (= cell_9_3 6)))
 (let (($x3594 (= cell_9_3 5)))
 (let (($x3834 (= cell_9_3 4)))
 (let (($x3034 (= cell_9_3 3)))
 (let (($x7211 (= cell_9_3 2)))
 (let (($x3459 (= cell_9_3 1)))
 (or $x3459 $x7211 $x3034 $x3834 $x3594 $x695 $x107 $x2413 $x9547)))))))))))
(assert
 (let (($x799 (= cell_1_4 1)))
 (or $x799 (= cell_1_4 2) (= cell_1_4 3) (= cell_1_4 4) (= cell_1_4 5) (= cell_1_4 6) (= cell_1_4 7) (= cell_1_4 8) (= cell_1_4 9))))
(assert
 (let (($x1604 (= cell_2_4 9)))
 (let (($x2778 (= cell_2_4 8)))
 (let (($x1397 (= cell_2_4 7)))
 (let (($x196 (= cell_2_4 6)))
 (let (($x880 (= cell_2_4 5)))
 (let (($x232 (= cell_2_4 4)))
 (let (($x1000 (= cell_2_4 3)))
 (let (($x1858 (= cell_2_4 2)))
 (let (($x85 (= cell_2_4 1)))
 (or $x85 $x1858 $x1000 $x232 $x880 $x196 $x1397 $x2778 $x1604)))))))))))
(assert
 (let (($x1144 (= cell_3_4 9)))
 (let (($x835 (= cell_3_4 8)))
 (let (($x3088 (= cell_3_4 7)))
 (let (($x2828 (= cell_3_4 6)))
 (let (($x20 (= cell_3_4 5)))
 (let (($x9137 (= cell_3_4 4)))
 (let (($x649 (= cell_3_4 3)))
 (let (($x1220 (= cell_3_4 2)))
 (let (($x3678 (= cell_3_4 1)))
 (or $x3678 $x1220 $x649 $x9137 $x20 $x2828 $x3088 $x835 $x1144)))))))))))
(assert
 (let (($x2377 (= cell_4_4 9)))
 (let (($x2217 (= cell_4_4 8)))
 (let (($x1280 (= cell_4_4 7)))
 (let (($x349 (= cell_4_4 6)))
 (let (($x2624 (= cell_4_4 5)))
 (let (($x332 (= cell_4_4 4)))
 (let (($x622 (= cell_4_4 3)))
 (let (($x3557 (= cell_4_4 2)))
 (let (($x3965 (= cell_4_4 1)))
 (or $x3965 $x3557 $x622 $x332 $x2624 $x349 $x1280 $x2217 $x2377)))))))))))
(assert
 (let (($x1227 (= cell_5_4 9)))
 (let (($x1211 (= cell_5_4 8)))
 (let (($x1393 (= cell_5_4 7)))
 (let (($x2346 (= cell_5_4 6)))
 (let (($x1430 (= cell_5_4 5)))
 (let (($x610 (= cell_5_4 4)))
 (let (($x3105 (= cell_5_4 3)))
 (let (($x2412 (= cell_5_4 2)))
 (let (($x579 (= cell_5_4 1)))
 (or $x579 $x2412 $x3105 $x610 $x1430 $x2346 $x1393 $x1211 $x1227)))))))))))
(assert
 (let (($x3350 (= cell_6_4 2)))
 (or (= cell_6_4 1) $x3350 (= cell_6_4 3) (= cell_6_4 4) (= cell_6_4 5) (= cell_6_4 6) (= cell_6_4 7) (= cell_6_4 8) (= cell_6_4 9))))
(assert
 (let (($x1933 (= cell_7_4 9)))
 (let (($x1949 (= cell_7_4 8)))
 (let (($x2847 (= cell_7_4 7)))
 (let (($x2079 (= cell_7_4 6)))
 (let (($x505 (= cell_7_4 5)))
 (let (($x2992 (= cell_7_4 4)))
 (let (($x639 (= cell_7_4 3)))
 (let (($x3014 (= cell_7_4 2)))
 (let (($x3474 (= cell_7_4 1)))
 (or $x3474 $x3014 $x639 $x2992 $x505 $x2079 $x2847 $x1949 $x1933)))))))))))
(assert
 (let (($x2090 (= cell_8_4 9)))
 (let (($x3807 (= cell_8_4 8)))
 (let (($x1130 (= cell_8_4 7)))
 (let (($x2567 (= cell_8_4 6)))
 (let (($x2532 (= cell_8_4 5)))
 (let (($x2942 (= cell_8_4 4)))
 (let (($x1037 (= cell_8_4 3)))
 (let (($x2818 (= cell_8_4 2)))
 (let (($x1316 (= cell_8_4 1)))
 (or $x1316 $x2818 $x1037 $x2942 $x2532 $x2567 $x1130 $x3807 $x2090)))))))))))
(assert
 (let (($x3093 (= cell_9_4 9)))
 (let (($x588 (= cell_9_4 8)))
 (let (($x1797 (= cell_9_4 7)))
 (let (($x877 (= cell_9_4 6)))
 (let (($x443 (= cell_9_4 5)))
 (let (($x56 (= cell_9_4 4)))
 (let (($x3401 (= cell_9_4 3)))
 (let (($x2631 (= cell_9_4 2)))
 (let (($x2126 (= cell_9_4 1)))
 (or $x2126 $x2631 $x3401 $x56 $x443 $x877 $x1797 $x588 $x3093)))))))))))
(assert
 (let (($x437 (= cell_1_5 9)))
 (let (($x2656 (= cell_1_5 8)))
 (let (($x2776 (= cell_1_5 7)))
 (let (($x1733 (= cell_1_5 6)))
 (let (($x2466 (= cell_1_5 5)))
 (let (($x1418 (= cell_1_5 4)))
 (let (($x1174 (= cell_1_5 3)))
 (let (($x1780 (= cell_1_5 2)))
 (let (($x7 (= cell_1_5 1)))
 (or $x7 $x1780 $x1174 $x1418 $x2466 $x1733 $x2776 $x2656 $x437)))))))))))
(assert
 (let (($x914 (= cell_2_5 9)))
 (let (($x2746 (= cell_2_5 8)))
 (let (($x3519 (= cell_2_5 7)))
 (let (($x954 (= cell_2_5 6)))
 (let (($x1607 (= cell_2_5 5)))
 (let (($x3142 (= cell_2_5 4)))
 (let (($x510 (= cell_2_5 3)))
 (let (($x3503 (= cell_2_5 2)))
 (let (($x2422 (= cell_2_5 1)))
 (or $x2422 $x3503 $x510 $x3142 $x1607 $x954 $x3519 $x2746 $x914)))))))))))
(assert
 (let (($x1879 (= cell_3_5 9)))
 (let (($x3419 (= cell_3_5 8)))
 (let (($x1846 (= cell_3_5 7)))
 (let (($x1859 (= cell_3_5 6)))
 (let (($x244 (= cell_3_5 5)))
 (let (($x700 (= cell_3_5 4)))
 (let (($x782 (= cell_3_5 3)))
 (let (($x2951 (= cell_3_5 2)))
 (let (($x902 (= cell_3_5 1)))
 (or $x902 $x2951 $x782 $x700 $x244 $x1859 $x1846 $x3419 $x1879)))))))))))
(assert
 (let (($x1142 (= cell_4_5 9)))
 (let (($x2863 (= cell_4_5 8)))
 (let (($x2286 (= cell_4_5 7)))
 (let (($x653 (= cell_4_5 6)))
 (let (($x131 (= cell_4_5 5)))
 (let (($x37 (= cell_4_5 4)))
 (let (($x10 (= cell_4_5 3)))
 (let (($x2265 (= cell_4_5 2)))
 (let (($x2523 (= cell_4_5 1)))
 (or $x2523 $x2265 $x10 $x37 $x131 $x653 $x2286 $x2863 $x1142)))))))))))
(assert
 (let (($x839 (= cell_5_5 9)))
 (let (($x1829 (= cell_5_5 8)))
 (let (($x3697 (= cell_5_5 7)))
 (let (($x2769 (= cell_5_5 6)))
 (let (($x909 (= cell_5_5 5)))
 (let (($x1584 (= cell_5_5 4)))
 (let (($x2704 (= cell_5_5 3)))
 (let (($x337 (= cell_5_5 2)))
 (let (($x2672 (= cell_5_5 1)))
 (or $x2672 $x337 $x2704 $x1584 $x909 $x2769 $x3697 $x1829 $x839)))))))))))
(assert
 (let (($x1682 (= cell_6_5 9)))
 (let (($x5723 (= cell_6_5 8)))
 (let (($x3031 (= cell_6_5 7)))
 (let (($x1351 (= cell_6_5 6)))
 (let (($x950 (= cell_6_5 5)))
 (let (($x3376 (= cell_6_5 4)))
 (let (($x778 (= cell_6_5 3)))
 (let (($x1574 (= cell_6_5 2)))
 (let (($x2400 (= cell_6_5 1)))
 (or $x2400 $x1574 $x778 $x3376 $x950 $x1351 $x3031 $x5723 $x1682)))))))))))
(assert
 (let (($x2298 (= cell_7_5 1)))
 (or $x2298 (= cell_7_5 2) (= cell_7_5 3) (= cell_7_5 4) (= cell_7_5 5) (= cell_7_5 6) (= cell_7_5 7) (= cell_7_5 8) (= cell_7_5 9))))
(assert
 (let (($x769 (= cell_8_5 9)))
 (let (($x3305 (= cell_8_5 8)))
 (let (($x1419 (= cell_8_5 7)))
 (let (($x3244 (= cell_8_5 6)))
 (let (($x1765 (= cell_8_5 5)))
 (let (($x2105 (= cell_8_5 4)))
 (let (($x3689 (= cell_8_5 3)))
 (let (($x382 (= cell_8_5 2)))
 (let (($x2799 (= cell_8_5 1)))
 (or $x2799 $x382 $x3689 $x2105 $x1765 $x3244 $x1419 $x3305 $x769)))))))))))
(assert
 (let (($x1570 (= cell_9_5 9)))
 (let (($x486 (= cell_9_5 8)))
 (let (($x1751 (= cell_9_5 7)))
 (let (($x2120 (= cell_9_5 6)))
 (let (($x1727 (= cell_9_5 5)))
 (let (($x2577 (= cell_9_5 4)))
 (let (($x3722 (= cell_9_5 3)))
 (let (($x3065 (= cell_9_5 2)))
 (let (($x2159 (= cell_9_5 1)))
 (or $x2159 $x3065 $x3722 $x2577 $x1727 $x2120 $x1751 $x486 $x1570)))))))))))
(assert
 (let (($x1156 (= cell_1_6 9)))
 (let (($x453 (= cell_1_6 8)))
 (let (($x2177 (= cell_1_6 7)))
 (let (($x2915 (= cell_1_6 6)))
 (let (($x956 (= cell_1_6 5)))
 (let (($x3782 (= cell_1_6 4)))
 (let (($x1003 (= cell_1_6 3)))
 (let (($x842 (= cell_1_6 2)))
 (let (($x1857 (= cell_1_6 1)))
 (or $x1857 $x842 $x1003 $x3782 $x956 $x2915 $x2177 $x453 $x1156)))))))))))
(assert
 (let (($x2160 (= cell_2_6 9)))
 (let (($x545 (= cell_2_6 8)))
 (let (($x1204 (= cell_2_6 7)))
 (let (($x2256 (= cell_2_6 6)))
 (let (($x1695 (= cell_2_6 5)))
 (let (($x1804 (= cell_2_6 4)))
 (let (($x2135 (= cell_2_6 3)))
 (let (($x3216 (= cell_2_6 2)))
 (let (($x1906 (= cell_2_6 1)))
 (or $x1906 $x3216 $x2135 $x1804 $x1695 $x2256 $x1204 $x545 $x2160)))))))))))
(assert
 (let (($x760 (= cell_3_6 2)))
 (or (= cell_3_6 1) $x760 (= cell_3_6 3) (= cell_3_6 4) (= cell_3_6 5) (= cell_3_6 6) (= cell_3_6 7) (= cell_3_6 8) (= cell_3_6 9))))
(assert
 (let (($x1388 (= cell_4_6 9)))
 (let (($x603 (= cell_4_6 8)))
 (let (($x2871 (= cell_4_6 7)))
 (let (($x995 (= cell_4_6 6)))
 (let (($x393 (= cell_4_6 5)))
 (let (($x1342 (= cell_4_6 4)))
 (let (($x1403 (= cell_4_6 3)))
 (let (($x2025 (= cell_4_6 2)))
 (let (($x2481 (= cell_4_6 1)))
 (or $x2481 $x2025 $x1403 $x1342 $x393 $x995 $x2871 $x603 $x1388)))))))))))
(assert
 (let (($x2054 (= cell_5_6 1)))
 (or $x2054 (= cell_5_6 2) (= cell_5_6 3) (= cell_5_6 4) (= cell_5_6 5) (= cell_5_6 6) (= cell_5_6 7) (= cell_5_6 8) (= cell_5_6 9))))
(assert
 (let (($x921 (= cell_6_6 9)))
 (let (($x1265 (= cell_6_6 8)))
 (let (($x35 (= cell_6_6 7)))
 (let (($x1759 (= cell_6_6 6)))
 (let (($x1572 (= cell_6_6 5)))
 (let (($x1842 (= cell_6_6 4)))
 (let (($x801 (= cell_6_6 3)))
 (let (($x368 (= cell_6_6 2)))
 (let (($x3799 (= cell_6_6 1)))
 (or $x3799 $x368 $x801 $x1842 $x1572 $x1759 $x35 $x1265 $x921)))))))))))
(assert
 (let (($x2037 (= cell_7_6 9)))
 (let (($x402 (= cell_7_6 8)))
 (let (($x362 (= cell_7_6 7)))
 (let (($x1753 (= cell_7_6 6)))
 (let (($x889 (= cell_7_6 5)))
 (let (($x725 (= cell_7_6 4)))
 (let (($x1194 (= cell_7_6 3)))
 (let (($x836 (= cell_7_6 2)))
 (let (($x1158 (= cell_7_6 1)))
 (or $x1158 $x836 $x1194 $x725 $x889 $x1753 $x362 $x402 $x2037)))))))))))
(assert
 (let (($x1344 (= cell_8_6 9)))
 (let (($x3131 (= cell_8_6 8)))
 (let (($x3441 (= cell_8_6 7)))
 (let (($x712 (= cell_8_6 6)))
 (let (($x3473 (= cell_8_6 5)))
 (let (($x1655 (= cell_8_6 4)))
 (let (($x1300 (= cell_8_6 3)))
 (let (($x1237 (= cell_8_6 2)))
 (let (($x1713 (= cell_8_6 1)))
 (or $x1713 $x1237 $x1300 $x1655 $x3473 $x712 $x3441 $x3131 $x1344)))))))))))
(assert
 (let (($x1335 (= cell_9_6 9)))
 (let (($x838 (= cell_9_6 8)))
 (let (($x2632 (= cell_9_6 7)))
 (let (($x1039 (= cell_9_6 6)))
 (let (($x3395 (= cell_9_6 5)))
 (let (($x1095 (= cell_9_6 4)))
 (let (($x2378 (= cell_9_6 3)))
 (let (($x2875 (= cell_9_6 2)))
 (let (($x1283 (= cell_9_6 1)))
 (or $x1283 $x2875 $x2378 $x1095 $x3395 $x1039 $x2632 $x838 $x1335)))))))))))
(assert
 (let (($x149 (= cell_1_7 9)))
 (let (($x3523 (= cell_1_7 8)))
 (let (($x2149 (= cell_1_7 7)))
 (let (($x1041 (= cell_1_7 6)))
 (let (($x2019 (= cell_1_7 5)))
 (let (($x9323 (= cell_1_7 4)))
 (let (($x1348 (= cell_1_7 3)))
 (let (($x1895 (= cell_1_7 2)))
 (let (($x2702 (= cell_1_7 1)))
 (or $x2702 $x1895 $x1348 $x9323 $x2019 $x1041 $x2149 $x3523 $x149)))))))))))
(assert
 (let (($x1567 (= cell_2_7 1)))
 (or $x1567 (= cell_2_7 2) (= cell_2_7 3) (= cell_2_7 4) (= cell_2_7 5) (= cell_2_7 6) (= cell_2_7 7) (= cell_2_7 8) (= cell_2_7 9))))
(assert
 (let (($x682 (= cell_3_7 9)))
 (let (($x568 (= cell_3_7 8)))
 (let (($x3277 (= cell_3_7 7)))
 (let (($x406 (= cell_3_7 6)))
 (let (($x1185 (= cell_3_7 5)))
 (let (($x1427 (= cell_3_7 4)))
 (let (($x3155 (= cell_3_7 3)))
 (let (($x2071 (= cell_3_7 2)))
 (let (($x3108 (= cell_3_7 1)))
 (or $x3108 $x2071 $x3155 $x1427 $x1185 $x406 $x3277 $x568 $x682)))))))))))
(assert
 (let (($x2717 (= cell_4_7 9)))
 (let (($x3462 (= cell_4_7 8)))
 (let (($x9344 (= cell_4_7 7)))
 (let (($x1023 (= cell_4_7 6)))
 (let (($x3564 (= cell_4_7 5)))
 (let (($x1700 (= cell_4_7 4)))
 (let (($x1565 (= cell_4_7 3)))
 (let (($x262 (= cell_4_7 2)))
 (let (($x2529 (= cell_4_7 1)))
 (or $x2529 $x262 $x1565 $x1700 $x3564 $x1023 $x9344 $x3462 $x2717)))))))))))
(assert
 (let (($x2661 (= cell_5_7 9)))
 (let (($x2954 (= cell_5_7 8)))
 (let (($x590 (= cell_5_7 7)))
 (let (($x2848 (= cell_5_7 6)))
 (let (($x2087 (= cell_5_7 5)))
 (let (($x1552 (= cell_5_7 4)))
 (let (($x1882 (= cell_5_7 3)))
 (let (($x973 (= cell_5_7 2)))
 (let (($x389 (= cell_5_7 1)))
 (or $x389 $x973 $x1882 $x1552 $x2087 $x2848 $x590 $x2954 $x2661)))))))))))
(assert
 (let (($x1360 (= cell_6_7 9)))
 (let (($x1925 (= cell_6_7 8)))
 (let (($x886 (= cell_6_7 7)))
 (let (($x3763 (= cell_6_7 6)))
 (let (($x677 (= cell_6_7 5)))
 (let (($x3378 (= cell_6_7 4)))
 (let (($x3818 (= cell_6_7 3)))
 (let (($x444 (= cell_6_7 2)))
 (let (($x3777 (= cell_6_7 1)))
 (or $x3777 $x444 $x3818 $x3378 $x677 $x3763 $x886 $x1925 $x1360)))))))))))
(assert
 (let (($x1077 (= cell_7_7 9)))
 (let (($x2320 (= cell_7_7 8)))
 (let (($x2074 (= cell_7_7 7)))
 (let (($x3354 (= cell_7_7 6)))
 (let (($x1056 (= cell_7_7 5)))
 (let (($x651 (= cell_7_7 4)))
 (let (($x351 (= cell_7_7 3)))
 (let (($x863 (= cell_7_7 2)))
 (let (($x2805 (= cell_7_7 1)))
 (or $x2805 $x863 $x351 $x651 $x1056 $x3354 $x2074 $x2320 $x1077)))))))))))
(assert
 (let (($x2179 (= cell_8_7 2)))
 (or (= cell_8_7 1) $x2179 (= cell_8_7 3) (= cell_8_7 4) (= cell_8_7 5) (= cell_8_7 6) (= cell_8_7 7) (= cell_8_7 8) (= cell_8_7 9))))
(assert
 (let (($x1821 (= cell_9_7 9)))
 (let (($x3219 (= cell_9_7 8)))
 (let (($x814 (= cell_9_7 7)))
 (let (($x1489 (= cell_9_7 6)))
 (let (($x1155 (= cell_9_7 5)))
 (let (($x3111 (= cell_9_7 4)))
 (let (($x1441 (= cell_9_7 3)))
 (let (($x2406 (= cell_9_7 2)))
 (let (($x3502 (= cell_9_7 1)))
 (or $x3502 $x2406 $x1441 $x3111 $x1155 $x1489 $x814 $x3219 $x1821)))))))))))
(assert
 (let (($x3417 (= cell_1_8 9)))
 (let (($x13 (= cell_1_8 8)))
 (let (($x2665 (= cell_1_8 7)))
 (let (($x185 (= cell_1_8 6)))
 (let (($x3686 (= cell_1_8 5)))
 (let (($x1990 (= cell_1_8 4)))
 (let (($x2106 (= cell_1_8 3)))
 (let (($x2959 (= cell_1_8 2)))
 (let (($x1435 (= cell_1_8 1)))
 (or $x1435 $x2959 $x2106 $x1990 $x3686 $x185 $x2665 $x13 $x3417)))))))))))
(assert
 (let (($x633 (= cell_2_8 2)))
 (or (= cell_2_8 1) $x633 (= cell_2_8 3) (= cell_2_8 4) (= cell_2_8 5) (= cell_2_8 6) (= cell_2_8 7) (= cell_2_8 8) (= cell_2_8 9))))
(assert
 (let (($x2150 (= cell_3_8 9)))
 (let (($x1412 (= cell_3_8 8)))
 (let (($x2589 (= cell_3_8 7)))
 (let (($x942 (= cell_3_8 6)))
 (let (($x3100 (= cell_3_8 5)))
 (let (($x3620 (= cell_3_8 4)))
 (let (($x3420 (= cell_3_8 3)))
 (let (($x641 (= cell_3_8 2)))
 (let (($x2431 (= cell_3_8 1)))
 (or $x2431 $x641 $x3420 $x3620 $x3100 $x942 $x2589 $x1412 $x2150)))))))))))
(assert
 (let (($x3177 (= cell_4_8 9)))
 (let (($x3094 (= cell_4_8 8)))
 (let (($x2197 (= cell_4_8 7)))
 (let (($x1213 (= cell_4_8 6)))
 (let (($x3677 (= cell_4_8 5)))
 (let (($x7078 (= cell_4_8 4)))
 (let (($x1761 (= cell_4_8 3)))
 (let (($x2335 (= cell_4_8 2)))
 (let (($x459 (= cell_4_8 1)))
 (or $x459 $x2335 $x1761 $x7078 $x3677 $x1213 $x2197 $x3094 $x3177)))))))))))
(assert
 (let (($x245 (= cell_5_8 9)))
 (let (($x1516 (= cell_5_8 8)))
 (let (($x313 (= cell_5_8 7)))
 (let (($x361 (= cell_5_8 6)))
 (let (($x4364 (= cell_5_8 5)))
 (let (($x2392 (= cell_5_8 4)))
 (let (($x4955 (= cell_5_8 3)))
 (let (($x3455 (= cell_5_8 2)))
 (let (($x3109 (= cell_5_8 1)))
 (or $x3109 $x3455 $x4955 $x2392 $x4364 $x361 $x313 $x1516 $x245)))))))))))
(assert
 (let (($x2738 (= cell_6_8 1)))
 (or $x2738 (= cell_6_8 2) (= cell_6_8 3) (= cell_6_8 4) (= cell_6_8 5) (= cell_6_8 6) (= cell_6_8 7) (= cell_6_8 8) (= cell_6_8 9))))
(assert
 (let (($x3571 (= cell_7_8 9)))
 (let (($x1398 (= cell_7_8 8)))
 (let (($x1611 (= cell_7_8 7)))
 (let (($x1116 (= cell_7_8 6)))
 (let (($x2732 (= cell_7_8 5)))
 (let (($x2096 (= cell_7_8 4)))
 (let (($x1770 (= cell_7_8 3)))
 (let (($x2139 (= cell_7_8 2)))
 (let (($x694 (= cell_7_8 1)))
 (or $x694 $x2139 $x1770 $x2096 $x2732 $x1116 $x1611 $x1398 $x3571)))))))))))
(assert
 (let (($x1543 (= cell_8_8 9)))
 (let (($x3469 (= cell_8_8 8)))
 (let (($x3500 (= cell_8_8 7)))
 (let (($x1874 (= cell_8_8 6)))
 (let (($x4512 (= cell_8_8 5)))
 (let (($x2048 (= cell_8_8 4)))
 (let (($x8374 (= cell_8_8 3)))
 (let (($x7530 (= cell_8_8 2)))
 (let (($x3104 (= cell_8_8 1)))
 (or $x3104 $x7530 $x8374 $x2048 $x4512 $x1874 $x3500 $x3469 $x1543)))))))))))
(assert
 (let (($x2638 (= cell_9_8 9)))
 (let (($x600 (= cell_9_8 8)))
 (let (($x1171 (= cell_9_8 7)))
 (let (($x2321 (= cell_9_8 6)))
 (let (($x2706 (= cell_9_8 5)))
 (let (($x306 (= cell_9_8 4)))
 (let (($x1730 (= cell_9_8 3)))
 (let (($x632 (= cell_9_8 2)))
 (let (($x1234 (= cell_9_8 1)))
 (or $x1234 $x632 $x1730 $x306 $x2706 $x2321 $x1171 $x600 $x2638)))))))))))
(assert
 (let (($x1998 (= cell_1_9 9)))
 (let (($x2434 (= cell_1_9 8)))
 (let (($x3735 (= cell_1_9 7)))
 (let (($x2528 (= cell_1_9 6)))
 (let (($x109 (= cell_1_9 5)))
 (let (($x2705 (= cell_1_9 4)))
 (let (($x2937 (= cell_1_9 3)))
 (let (($x2963 (= cell_1_9 2)))
 (let (($x1232 (= cell_1_9 1)))
 (or $x1232 $x2963 $x2937 $x2705 $x109 $x2528 $x3735 $x2434 $x1998)))))))))))
(assert
 (let (($x8100 (= cell_2_9 9)))
 (let (($x3331 (= cell_2_9 8)))
 (let (($x1950 (= cell_2_9 7)))
 (let (($x3626 (= cell_2_9 6)))
 (let (($x4541 (= cell_2_9 5)))
 (let (($x8853 (= cell_2_9 4)))
 (let (($x3576 (= cell_2_9 3)))
 (let (($x291 (= cell_2_9 2)))
 (let (($x3374 (= cell_2_9 1)))
 (or $x3374 $x291 $x3576 $x8853 $x4541 $x3626 $x1950 $x3331 $x8100)))))))))))
(assert
 (let (($x2940 (= cell_3_9 9)))
 (let (($x1671 (= cell_3_9 8)))
 (let (($x423 (= cell_3_9 7)))
 (let (($x1301 (= cell_3_9 6)))
 (let (($x3679 (= cell_3_9 5)))
 (let (($x868 (= cell_3_9 4)))
 (let (($x2233 (= cell_3_9 3)))
 (let (($x3597 (= cell_3_9 2)))
 (let (($x2635 (= cell_3_9 1)))
 (or $x2635 $x3597 $x2233 $x868 $x3679 $x1301 $x423 $x1671 $x2940)))))))))))
(assert
 (let (($x2262 (= cell_4_9 9)))
 (let (($x2076 (= cell_4_9 8)))
 (let (($x1832 (= cell_4_9 7)))
 (let (($x3676 (= cell_4_9 6)))
 (let (($x97 (= cell_4_9 5)))
 (let (($x3133 (= cell_4_9 4)))
 (let (($x1528 (= cell_4_9 3)))
 (let (($x2580 (= cell_4_9 2)))
 (let (($x1337 (= cell_4_9 1)))
 (or $x1337 $x2580 $x1528 $x3133 $x97 $x3676 $x1832 $x2076 $x2262)))))))))))
(assert
 (let (($x1519 (= cell_5_9 2)))
 (or (= cell_5_9 1) $x1519 (= cell_5_9 3) (= cell_5_9 4) (= cell_5_9 5) (= cell_5_9 6) (= cell_5_9 7) (= cell_5_9 8) (= cell_5_9 9))))
(assert
 (let (($x3779 (= cell_6_9 9)))
 (let (($x3593 (= cell_6_9 8)))
 (let (($x917 (= cell_6_9 7)))
 (let (($x8975 (= cell_6_9 6)))
 (let (($x2318 (= cell_6_9 5)))
 (let (($x1214 (= cell_6_9 4)))
 (let (($x3607 (= cell_6_9 3)))
 (let (($x2900 (= cell_6_9 2)))
 (let (($x2164 (= cell_6_9 1)))
 (or $x2164 $x2900 $x3607 $x1214 $x2318 $x8975 $x917 $x3593 $x3779)))))))))))
(assert
 (let (($x1420 (= cell_7_9 9)))
 (let (($x3070 (= cell_7_9 8)))
 (let (($x566 (= cell_7_9 7)))
 (let (($x3271 (= cell_7_9 6)))
 (let (($x3705 (= cell_7_9 5)))
 (let (($x2922 (= cell_7_9 4)))
 (let (($x7380 (= cell_7_9 3)))
 (let (($x986 (= cell_7_9 2)))
 (let (($x1120 (= cell_7_9 1)))
 (or $x1120 $x986 $x7380 $x2922 $x3705 $x3271 $x566 $x3070 $x1420)))))))))))
(assert
 (let (($x411 (= cell_8_9 9)))
 (let (($x3561 (= cell_8_9 8)))
 (let (($x2046 (= cell_8_9 7)))
 (let (($x5170 (= cell_8_9 6)))
 (let (($x2364 (= cell_8_9 5)))
 (let (($x3239 (= cell_8_9 4)))
 (let (($x628 (= cell_8_9 3)))
 (let (($x1742 (= cell_8_9 2)))
 (let (($x8411 (= cell_8_9 1)))
 (or $x8411 $x1742 $x628 $x3239 $x2364 $x5170 $x2046 $x3561 $x411)))))))))))
(assert
 (let (($x2905 (= cell_9_9 1)))
 (or $x2905 (= cell_9_9 2) (= cell_9_9 3) (= cell_9_9 4) (= cell_9_9 5) (= cell_9_9 6) (= cell_9_9 7) (= cell_9_9 8) (= cell_9_9 9))))
(assert
 (and (distinct cell_1_1 cell_1_2 cell_1_3 cell_1_4 cell_1_5 cell_1_6 cell_1_7 cell_1_8 cell_1_9) true))
(assert
 (and (distinct cell_2_1 cell_2_2 cell_2_3 cell_2_4 cell_2_5 cell_2_6 cell_2_7 cell_2_8 cell_2_9) true))
(assert
 (and (distinct cell_3_1 cell_3_2 cell_3_3 cell_3_4 cell_3_5 cell_3_6 cell_3_7 cell_3_8 cell_3_9) true))
(assert
 (and (distinct cell_4_1 cell_4_2 cell_4_3 cell_4_4 cell_4_5 cell_4_6 cell_4_7 cell_4_8 cell_4_9) true))
(assert
 (and (distinct cell_5_1 cell_5_2 cell_5_3 cell_5_4 cell_5_5 cell_5_6 cell_5_7 cell_5_8 cell_5_9) true))
(assert
 (and (distinct cell_6_1 cell_6_2 cell_6_3 cell_6_4 cell_6_5 cell_6_6 cell_6_7 cell_6_8 cell_6_9) true))
(assert
 (and (distinct cell_7_1 cell_7_2 cell_7_3 cell_7_4 cell_7_5 cell_7_6 cell_7_7 cell_7_8 cell_7_9) true))
(assert
 (and (distinct cell_8_1 cell_8_2 cell_8_3 cell_8_4 cell_8_5 cell_8_6 cell_8_7 cell_8_8 cell_8_9) true))
(assert
 (and (distinct cell_9_1 cell_9_2 cell_9_3 cell_9_4 cell_9_5 cell_9_6 cell_9_7 cell_9_8 cell_9_9) true))
(assert
 (and (distinct cell_1_1 cell_2_1 cell_3_1 cell_4_1 cell_5_1 cell_6_1 cell_7_1 cell_8_1 cell_9_1) true))
(assert
 (and (distinct cell_1_2 cell_2_2 cell_3_2 cell_4_2 cell_5_2 cell_6_2 cell_7_2 cell_8_2 cell_9_2) true))
(assert
 (and (distinct cell_1_3 cell_2_3 cell_3_3 cell_4_3 cell_5_3 cell_6_3 cell_7_3 cell_8_3 cell_9_3) true))
(assert
 (and (distinct cell_1_4 cell_2_4 cell_3_4 cell_4_4 cell_5_4 cell_6_4 cell_7_4 cell_8_4 cell_9_4) true))
(assert
 (and (distinct cell_1_5 cell_2_5 cell_3_5 cell_4_5 cell_5_5 cell_6_5 cell_7_5 cell_8_5 cell_9_5) true))
(assert
 (and (distinct cell_1_6 cell_2_6 cell_3_6 cell_4_6 cell_5_6 cell_6_6 cell_7_6 cell_8_6 cell_9_6) true))
(assert
 (and (distinct cell_1_7 cell_2_7 cell_3_7 cell_4_7 cell_5_7 cell_6_7 cell_7_7 cell_8_7 cell_9_7) true))
(assert
 (and (distinct cell_1_8 cell_2_8 cell_3_8 cell_4_8 cell_5_8 cell_6_8 cell_7_8 cell_8_8 cell_9_8) true))
(assert
 (and (distinct cell_1_9 cell_2_9 cell_3_9 cell_4_9 cell_5_9 cell_6_9 cell_7_9 cell_8_9 cell_9_9) true))
(assert
 (and (distinct cell_1_1 cell_1_2 cell_1_3 cell_2_1 cell_2_2 cell_2_3 cell_3_1 cell_3_2 cell_3_3) true))
(assert
 (and (distinct cell_1_4 cell_1_5 cell_1_6 cell_2_4 cell_2_5 cell_2_6 cell_3_4 cell_3_5 cell_3_6) true))
(assert
 (and (distinct cell_1_7 cell_1_8 cell_1_9 cell_2_7 cell_2_8 cell_2_9 cell_3_7 cell_3_8 cell_3_9) true))
(assert
 (and (distinct cell_4_1 cell_4_2 cell_4_3 cell_5_1 cell_5_2 cell_5_3 cell_6_1 cell_6_2 cell_6_3) true))
(assert
 (and (distinct cell_4_4 cell_4_5 cell_4_6 cell_5_4 cell_5_5 cell_5_6 cell_6_4 cell_6_5 cell_6_6) true))
(assert
 (and (distinct cell_4_7 cell_4_8 cell_4_9 cell_5_7 cell_5_8 cell_5_9 cell_6_7 cell_6_8 cell_6_9) true))
(assert
 (and (distinct cell_7_1 cell_7_2 cell_7_3 cell_8_1 cell_8_2 cell_8_3 cell_9_1 cell_9_2 cell_9_3) true))
(assert
 (and (distinct cell_7_4 cell_7_5 cell_7_6 cell_8_4 cell_8_5 cell_8_6 cell_9_4 cell_9_5 cell_9_6) true))
(assert
 (and (distinct cell_7_7 cell_7_8 cell_7_9 cell_8_7 cell_8_8 cell_8_9 cell_9_7 cell_9_8 cell_9_9) true))
(assert
 (let (($x1184 (and (distinct cell_5_9 cell_6_8 cell_7_7 cell_8_6) true)))
 (let (($x1852 (and (distinct cell_2_9 cell_3_8 cell_4_7 cell_5_6 cell_6_5 cell_7_4 cell_8_3 cell_9_2) true)))
 (let (($x3066 (and (distinct cell_1_8 cell_2_7 cell_3_6 cell_4_5 cell_5_4 cell_6_3 cell_7_2 cell_8_1) true)))
 (let (($x2869 (and (distinct cell_1_5 cell_2_4 cell_3_3 cell_4_2) true)))
 (let (($x587 (and (distinct cell_5_1 cell_6_2 cell_7_3 cell_8_4) true)))
 (let (($x2443 (and (distinct cell_2_1 cell_3_2 cell_4_3 cell_5_4 cell_6_5 cell_7_6 cell_8_7 cell_9_8) true)))
 (let (($x1414 (and (distinct cell_1_2 cell_2_3 cell_3_4 cell_4_5 cell_5_6 cell_6_7 cell_7_8 cell_8_9) true)))
 (let (($x3143 (and (distinct cell_1_5 cell_2_6 cell_3_7 cell_4_8) true)))
 (and $x3143 $x1414 $x2443 $x587 $x2869 $x3066 $x1852 $x1184))))))))))
(assert
 (= cell_9_5 2))
(check-sat)
